c Result of efficient AIG-to-CNF conversion using package CNF
p cnf 386 1488
-2 3 217 0
-2 -3 -217 0
2 -3 217 0
2 3 -217 0
-3 4 188 0
-3 -4 -188 0
3 -4 188 0
3 4 -188 0
-4 -5 -164 0
-4 5 164 0
4 5 -164 0
4 -5 164 0
-5 -6 -137 0
-5 6 137 0
5 6 -137 0
5 -6 137 0
-6 -7 -111 0
-6 7 111 0
6 7 -111 0
6 -7 111 0
-7 -8 -110 0
-7 8 110 0
7 8 -110 0
7 -8 110 0
-8 9 82 0
-8 -9 -82 0
8 -9 82 0
8 9 -82 0
-9 10 77 0
-9 -10 -77 0
9 -10 77 0
9 10 -77 0
-10 11 53 0
-10 -11 -53 0
10 -11 53 0
10 11 -53 0
-11 12 41 0
-11 -12 -41 0
11 -12 41 0
11 12 -41 0
-12 13 29 0
-12 -13 -29 0
12 -13 29 0
12 13 -29 0
-13 14 24 0
-13 -14 -24 0
13 -14 24 0
13 14 -24 0
-14 15 20 0
-14 -15 -20 0
14 -15 20 0
14 15 -20 0
-15 -16 -19 0
-15 16 19 0
15 16 -19 0
15 -16 19 0
-16 -17 -18 0
-16 17 18 0
16 17 -18 0
16 -17 18 0
17 -369 -383 0
-17 369 0
-17 383 0
18 -370 -371 0
-18 370 0
-18 371 0
19 -372 -375 0
-19 372 0
-19 375 0
-20 21 23 0
-20 22 23 0
-20 21 22 0
20 -21 -22 0
20 -22 -23 0
20 -21 -23 0
21 -370 -383 0
-21 370 0
-21 383 0
22 -371 -372 0
-22 371 0
-22 372 0
23 -375 -381 0
-23 375 0
-23 381 0
-24 -25 -28 0
-24 25 28 0
24 25 -28 0
24 -25 28 0
-25 -26 -27 0
-25 26 27 0
25 26 -27 0
25 -26 27 0
26 -381 -384 0
-26 381 0
-26 384 0
27 -377 -385 0
-27 377 0
-27 385 0
28 -373 -374 0
-28 373 0
-28 374 0
-29 30 32 0
-29 32 36 0
-29 30 36 0
29 -30 -36 0
29 -32 -36 0
29 -30 -32 0
-30 23 31 0
-30 -23 -31 0
30 -23 31 0
30 23 -31 0
-31 -21 -22 0
-31 21 22 0
31 21 -22 0
31 -21 22 0
-32 33 35 0
-32 34 35 0
-32 33 34 0
32 -33 -34 0
32 -34 -35 0
32 -33 -35 0
33 -372 -383 0
-33 372 0
-33 383 0
34 -371 -381 0
-34 371 0
-34 381 0
35 -375 -385 0
-35 375 0
-35 385 0
-36 -37 -40 0
-36 37 40 0
36 37 -40 0
36 -37 40 0
-37 -38 -39 0
-37 38 39 0
37 38 -39 0
37 -38 39 0
38 -384 -385 0
-38 384 0
-38 385 0
39 -373 -377 0
-39 373 0
-39 377 0
40 -374 -379 0
-40 374 0
-40 379 0
-41 42 49 0
-41 -42 -49 0
41 -42 49 0
41 42 -49 0
-42 43 44 0
-42 -43 -44 0
42 -43 44 0
42 43 -44 0
-43 38 40 0
-43 39 40 0
-43 38 39 0
43 -38 -39 0
43 -39 -40 0
43 -38 -40 0
-44 -45 -48 0
-44 45 48 0
44 45 -48 0
44 -45 48 0
-45 -46 -47 0
-45 46 47 0
45 46 -47 0
45 -46 47 0
46 -379 -382 0
-46 379 0
-46 382 0
47 -376 -378 0
-47 376 0
-47 378 0
48 -366 -368 0
-48 366 0
-48 368 0
-49 50 52 0
-49 51 52 0
-49 50 51 0
49 -50 -51 0
49 -51 -52 0
49 -50 -52 0
50 -378 -382 0
-50 378 0
-50 382 0
51 -368 -376 0
-51 368 0
-51 376 0
52 -366 -367 0
-52 366 0
-52 367 0
-53 54 56 0
-53 56 68 0
-53 54 68 0
53 -54 -68 0
53 -56 -68 0
53 -54 -56 0
-54 36 55 0
-54 -36 -55 0
54 -36 55 0
54 36 -55 0
-55 30 32 0
-55 -30 -32 0
55 -30 32 0
55 30 -32 0
-56 57 59 0
-56 59 63 0
-56 57 63 0
56 -57 -63 0
56 -59 -63 0
56 -57 -59 0
-57 35 58 0
-57 -35 -58 0
57 -35 58 0
57 35 -58 0
-58 -33 -34 0
-58 33 34 0
58 33 -34 0
58 -33 34 0
-59 60 62 0
-59 61 62 0
-59 60 61 0
59 -60 -61 0
59 -61 -62 0
59 -60 -62 0
60 -381 -383 0
-60 381 0
-60 383 0
61 -371 -385 0
-61 371 0
-61 385 0
62 -373 -375 0
-62 373 0
-62 375 0
-63 -64 -67 0
-63 64 67 0
63 64 -67 0
63 -64 67 0
-64 -65 -66 0
-64 65 66 0
64 65 -66 0
64 -65 66 0
65 -373 -384 0
-65 373 0
-65 384 0
66 -377 -379 0
-66 377 0
-66 379 0
67 -374 -378 0
-67 374 0
-67 378 0
-68 69 73 0
-68 -69 -73 0
68 -69 73 0
68 69 -73 0
-69 70 71 0
-69 -70 -71 0
69 -70 71 0
69 70 -71 0
-70 65 67 0
-70 66 67 0
-70 65 66 0
70 -65 -66 0
70 -66 -67 0
70 -65 -67 0
-71 52 72 0
-71 -52 -72 0
71 -52 72 0
71 52 -72 0
-72 -50 -51 0
-72 50 51 0
72 50 -51 0
72 -50 51 0
-73 74 76 0
-73 75 76 0
-73 74 75 0
73 -74 -75 0
73 -75 -76 0
73 -74 -76 0
74 -368 -382 0
-74 368 0
-74 382 0
75 -367 -376 0
-75 367 0
-75 376 0
76 -365 -366 0
-76 365 0
-76 366 0
-77 78 79 0
-77 -78 -79 0
77 -78 79 0
77 78 -79 0
-78 70 71 0
-78 71 73 0
-78 70 73 0
78 -70 -73 0
78 -71 -73 0
78 -70 -71 0
-79 -80 -81 0
-79 80 81 0
79 80 -81 0
79 -80 81 0
80 -364 -367 0
-80 364 0
-80 367 0
81 -365 -380 0
-81 365 0
-81 380 0
-82 83 85 0
-82 85 107 0
-82 83 107 0
82 -83 -107 0
82 -85 -107 0
82 -83 -85 0
-83 68 84 0
-83 -68 -84 0
83 -68 84 0
83 68 -84 0
-84 54 56 0
-84 -54 -56 0
84 -54 56 0
84 54 -56 0
-85 86 88 0
-85 88 100 0
-85 86 100 0
85 -86 -100 0
85 -88 -100 0
85 -86 -88 0
-86 63 87 0
-86 -63 -87 0
86 -63 87 0
86 63 -87 0
-87 57 59 0
-87 -57 -59 0
87 -57 59 0
87 57 -59 0
-88 89 91 0
-88 91 95 0
-88 89 95 0
88 -89 -95 0
88 -91 -95 0
88 -89 -91 0
-89 62 90 0
-89 -62 -90 0
89 -62 90 0
89 62 -90 0
-90 -60 -61 0
-90 60 61 0
90 60 -61 0
90 -60 61 0
-91 92 94 0
-91 93 94 0
-91 92 93 0
91 -92 -93 0
91 -93 -94 0
91 -92 -94 0
92 -383 -385 0
-92 383 0
-92 385 0
93 -371 -373 0
-93 371 0
-93 373 0
94 -375 -379 0
-94 375 0
-94 379 0
-95 -96 -99 0
-95 96 99 0
95 96 -99 0
95 -96 99 0
-96 -97 -98 0
-96 97 98 0
96 97 -98 0
96 -97 98 0
97 -379 -384 0
-97 379 0
-97 384 0
98 -377 -378 0
-98 377 0
-98 378 0
99 -368 -374 0
-99 368 0
-99 374 0
-100 -101 -105 0
-100 101 105 0
100 101 -105 0
100 -101 105 0
-101 102 103 0
-101 -102 -103 0
101 -102 103 0
101 102 -103 0
-102 97 99 0
-102 98 99 0
-102 97 98 0
102 -97 -98 0
102 -98 -99 0
102 -97 -99 0
-103 76 104 0
-103 -76 -104 0
103 -76 104 0
103 76 -104 0
-104 -74 -75 0
-104 74 75 0
104 74 -75 0
104 -74 75 0
105 -367 -382 -106 0
-105 367 0
-105 382 0
-105 106 0
106 -365 -376 0
-106 365 0
-106 376 0
-107 108 109 0
-107 -108 -109 0
107 -108 109 0
107 108 -109 0
108 -364 -365 0
-108 364 0
-108 365 0
-109 102 103 0
-109 103 105 0
-109 102 105 0
109 -103 -105 0
109 -102 -103 0
109 -102 -105 0
110 -108 -109 0
-110 108 0
-110 109 0
111 -112 -114 0
-111 112 0
-111 114 0
-112 107 113 0
-112 -107 -113 0
112 -107 113 0
112 107 -113 0
-113 83 85 0
-113 -83 -85 0
113 -83 85 0
113 83 -85 0
-114 115 117 0
-114 117 136 0
-114 115 136 0
114 -117 -136 0
114 -115 -117 0
114 -115 -136 0
-115 100 116 0
-115 -100 -116 0
115 -100 116 0
115 100 -116 0
-116 86 88 0
-116 -86 -88 0
116 -86 88 0
116 86 -88 0
-117 118 120 0
-117 120 132 0
-117 118 132 0
117 -118 -132 0
117 -120 -132 0
117 -118 -120 0
-118 95 119 0
-118 -95 -119 0
118 -95 119 0
118 95 -119 0
-119 89 91 0
-119 -89 -91 0
119 -89 91 0
119 89 -91 0
-120 121 123 0
-120 123 127 0
-120 121 127 0
120 -121 -127 0
120 -123 -127 0
120 -121 -123 0
-121 94 122 0
-121 -94 -122 0
121 -94 122 0
121 94 -122 0
-122 -92 -93 0
-122 92 93 0
122 92 -93 0
122 -92 93 0
-123 124 126 0
-123 125 126 0
-123 124 125 0
123 -124 -125 0
123 -125 -126 0
123 -124 -126 0
124 -373 -383 0
-124 373 0
-124 383 0
125 -371 -379 0
-125 371 0
-125 379 0
126 -375 -378 0
-126 375 0
-126 378 0
-127 -128 -131 0
-127 128 131 0
127 128 -131 0
127 -128 131 0
-128 -129 -130 0
-128 129 130 0
128 129 -130 0
128 -129 130 0
129 -378 -384 0
-129 378 0
-129 384 0
130 -368 -377 0
-130 368 0
-130 377 0
131 -367 -374 0
-131 367 0
-131 374 0
-132 133 135 0
-132 -133 -135 0
132 -133 135 0
132 133 -135 0
-133 -134 -106 0
-133 134 106 0
133 134 -106 0
133 -134 106 0
134 -367 -382 0
-134 367 0
-134 382 0
-135 129 131 0
-135 130 131 0
-135 129 130 0
135 -129 -130 0
135 -130 -131 0
135 -129 -131 0
136 -133 -135 0
-136 133 0
-136 135 0
137 -138 -139 0
-137 138 0
-137 139 0
-138 112 114 0
-138 -112 -114 0
138 -112 114 0
138 112 -114 0
139 -140 -142 0
-139 140 0
-139 142 0
-140 136 141 0
-140 -136 -141 0
140 -136 141 0
140 136 -141 0
-141 115 117 0
-141 -115 -117 0
141 -115 117 0
141 115 -117 0
-142 143 145 0
-142 145 163 0
-142 143 163 0
142 -145 -163 0
142 -143 -145 0
142 -143 -163 0
-143 132 144 0
-143 -132 -144 0
143 -132 144 0
143 132 -144 0
-144 118 120 0
-144 -118 -120 0
144 -118 120 0
144 118 -120 0
-145 146 148 0
-145 148 160 0
-145 146 160 0
145 -146 -160 0
145 -148 -160 0
145 -146 -148 0
-146 127 147 0
-146 -127 -147 0
146 -127 147 0
146 127 -147 0
-147 121 123 0
-147 -121 -123 0
147 -121 123 0
147 121 -123 0
-148 149 151 0
-148 151 155 0
-148 149 155 0
148 -149 -155 0
148 -151 -155 0
148 -149 -151 0
-149 126 150 0
-149 -126 -150 0
149 -126 150 0
149 126 -150 0
-150 -124 -125 0
-150 124 125 0
150 124 -125 0
150 -124 125 0
-151 152 154 0
-151 153 154 0
-151 152 153 0
151 -152 -153 0
151 -153 -154 0
151 -152 -154 0
152 -379 -383 0
-152 379 0
-152 383 0
153 -371 -378 0
-153 371 0
-153 378 0
154 -368 -375 0
-154 368 0
-154 375 0
-155 -156 -159 0
-155 156 159 0
155 156 -159 0
155 -156 159 0
-156 -157 -158 0
-156 157 158 0
156 157 -158 0
156 -157 158 0
157 -368 -384 0
-157 368 0
-157 384 0
158 -367 -377 0
-158 367 0
-158 377 0
159 -365 -374 0
-159 365 0
-159 374 0
-160 161 162 0
-160 -161 -162 0
160 -161 162 0
160 161 -162 0
161 -365 -382 0
-161 365 0
-161 382 0
-162 157 159 0
-162 158 159 0
-162 157 158 0
162 -157 -158 0
162 -158 -159 0
162 -157 -159 0
163 -161 -162 0
-163 161 0
-163 162 0
164 -165 -166 0
-164 165 0
-164 166 0
-165 -138 -139 0
-165 138 139 0
165 138 -139 0
165 -138 139 0
166 -167 -168 0
-166 167 0
-166 168 0
-167 140 142 0
-167 -140 -142 0
167 -140 142 0
167 140 -142 0
168 -169 -171 0
-168 169 0
-168 171 0
-169 163 170 0
-169 -163 -170 0
169 -163 170 0
169 163 -170 0
-170 143 145 0
-170 -143 -145 0
170 -143 145 0
170 143 -145 0
171 -172 -174 0
-171 172 0
-171 174 0
-172 160 173 0
-172 -160 -173 0
172 -160 173 0
172 160 -173 0
-173 146 148 0
-173 -146 -148 0
173 -146 148 0
173 146 -148 0
-174 175 177 0
-174 177 187 0
-174 175 187 0
174 -177 -187 0
174 -175 -177 0
174 -175 -187 0
-175 155 176 0
-175 -155 -176 0
175 -155 176 0
175 155 -176 0
-176 149 151 0
-176 -149 -151 0
176 -149 151 0
176 149 -151 0
-177 178 180 0
-177 180 184 0
-177 178 184 0
177 -178 -184 0
177 -180 -184 0
177 -178 -180 0
-178 154 179 0
-178 -154 -179 0
178 -154 179 0
178 154 -179 0
-179 -152 -153 0
-179 152 153 0
179 152 -153 0
179 -152 153 0
-180 181 183 0
-180 182 183 0
-180 181 182 0
180 -181 -182 0
180 -182 -183 0
180 -181 -183 0
181 -378 -383 0
-181 378 0
-181 383 0
182 -368 -371 0
-182 368 0
-182 371 0
183 -367 -375 0
-183 367 0
-183 375 0
-184 -185 -186 0
-184 185 186 0
184 185 -186 0
184 -185 186 0
185 -367 -384 0
-185 367 0
-185 384 0
186 -365 -377 0
-186 365 0
-186 377 0
187 -367 -384 -186 0
-187 367 0
-187 384 0
-187 186 0
-188 190 191 0
-188 191 209 0
-188 189 0
-188 190 209 0
188 -189 -190 -209 0
188 -189 -191 -209 0
188 -189 -190 -191 0
-189 -165 -166 0
-189 165 166 0
189 165 -166 0
189 -165 166 0
-190 -167 -168 0
-190 167 168 0
190 167 -168 0
190 -167 168 0
191 -192 -193 0
-191 192 0
-191 193 0
-192 -169 -171 0
-192 169 171 0
192 169 -171 0
192 -169 171 0
193 -194 -195 0
-193 194 0
-193 195 0
-194 172 174 0
-194 -172 -174 0
194 -172 174 0
194 172 -174 0
195 -196 -198 0
-195 196 0
-195 198 0
-196 187 197 0
-196 -187 -197 0
196 -187 197 0
196 187 -197 0
-197 175 177 0
-197 -175 -177 0
197 -175 177 0
197 175 -177 0
198 -199 -201 0
-198 199 0
-198 201 0
-199 184 200 0
-199 -184 -200 0
199 -184 200 0
199 184 -200 0
-200 178 180 0
-200 -178 -180 0
200 -178 180 0
200 178 -180 0
-201 202 204 0
-201 204 208 0
-201 202 208 0
201 -204 -208 0
201 -202 -204 0
201 -202 -208 0
-202 183 203 0
-202 -183 -203 0
202 -183 203 0
202 183 -203 0
-203 -181 -182 0
-203 181 182 0
203 181 -182 0
203 -181 182 0
-204 205 207 0
-204 206 207 0
-204 205 206 0
204 -205 -206 0
204 -206 -207 0
204 -205 -207 0
205 -368 -383 0
-205 368 0
-205 383 0
206 -367 -371 0
-206 367 0
-206 371 0
207 -365 -375 0
-207 365 0
-207 375 0
208 -365 -384 0
-208 365 0
-208 384 0
209 -194 195 -210 -211 0
209 194 -195 -210 -211 0
-209 210 0
-209 -194 -195 0
-209 211 0
-209 194 195 0
-210 -192 -193 0
-210 192 193 0
210 192 -193 0
210 -192 193 0
211 -196 199 -201 -212 0
211 -196 -199 201 -212 0
-211 212 0
-211 199 201 0
-211 196 0
-211 -199 -201 0
212 207 -213 -214 -216 0
212 -207 213 -214 -216 0
-212 214 0
-212 207 213 0
-212 216 0
-212 -207 -213 0
-213 -205 -206 0
-213 205 206 0
213 205 -206 0
213 -205 206 0
-214 208 215 0
-214 -208 -215 0
214 -208 215 0
214 208 -215 0
-215 202 204 0
-215 -202 -204 0
215 -202 204 0
215 202 -204 0
216 -365 -367 -371 -383 0
-216 383 0
-216 365 0
-216 371 0
-216 367 0
-217 218 289 0
-217 -218 -289 0
217 -218 289 0
217 218 -289 0
-218 219 267 0
-218 -219 -267 0
218 -219 267 0
218 219 -267 0
-219 220 237 0
-219 237 252 0
-219 220 252 0
219 -220 -252 0
219 -237 -252 0
219 -220 -237 0
-220 -221 -232 0
-220 221 232 0
220 221 -232 0
220 -221 232 0
-221 -222 -227 0
-221 222 227 0
221 222 -227 0
221 -222 227 0
222 223 -225 0
222 -223 -226 0
-222 -223 226 0
-222 223 225 0
-223 375 224 0
-223 384 -224 0
223 -384 -224 0
223 -375 224 0
224 373 -385 0
224 -373 385 0
-224 -373 -385 0
-224 373 385 0
225 373 -381 0
225 -381 385 0
-225 381 0
-225 -373 -385 0
226 -373 381 0
226 381 -385 0
-226 -381 0
-226 373 385 0
227 228 -230 0
227 -228 -231 0
-227 -228 231 0
-227 228 230 0
-228 383 229 0
-228 371 -229 0
228 -383 229 0
228 -371 -229 0
229 372 -381 0
229 -372 381 0
-229 -372 -381 0
-229 372 381 0
230 -370 381 0
230 -370 372 0
-230 370 0
-230 -372 -381 0
231 370 -372 0
231 370 -381 0
-231 -370 0
-231 372 381 0
232 233 -235 0
232 -233 -236 0
-232 -233 236 0
-232 233 235 0
-233 377 234 0
-233 374 -234 0
233 -377 234 0
233 -374 -234 0
234 378 -379 0
234 -378 379 0
-234 -378 -379 0
-234 378 379 0
235 -373 379 0
235 -373 378 0
-235 373 0
-235 -378 -379 0
236 373 -378 0
236 373 -379 0
-236 -373 0
-236 378 379 0
-237 238 247 0
-237 245 247 0
-237 238 245 0
237 -238 -245 0
237 -245 -247 0
237 -238 -247 0
238 -239 -242 0
-238 239 0
-238 242 0
239 -367 240 0
239 -240 -241 0
-239 367 240 0
-239 -240 241 0
-240 365 382 0
-240 -365 376 0
240 -365 -376 0
240 365 -382 0
241 -365 367 0
-241 365 0
-241 -367 0
242 -225 -243 0
-242 225 0
-242 243 0
243 -241 -244 0
243 -367 244 0
-243 241 -244 0
-243 367 244 0
-244 -365 382 0
-244 365 374 0
244 365 -374 0
244 -365 -382 0
245 -236 -246 0
245 -235 246 0
-245 236 -246 0
-245 235 246 0
-246 384 234 0
-246 377 -234 0
246 -384 234 0
246 -377 -234 0
247 248 -250 0
247 -248 -251 0
-247 -248 251 0
-247 248 250 0
-248 374 249 0
-248 382 -249 0
248 -382 -249 0
248 -374 249 0
249 367 -368 0
249 -367 368 0
-249 -367 -368 0
-249 367 368 0
250 368 -378 0
250 367 -378 0
-250 378 0
-250 -367 -368 0
251 -367 378 0
251 -368 378 0
-251 -378 0
-251 367 368 0
-252 253 262 0
-252 -253 -262 0
252 -253 262 0
252 253 -262 0
-253 -254 -260 0
-253 254 260 0
253 254 -260 0
253 -254 260 0
-254 -255 -257 0
-254 255 257 0
254 255 -257 0
254 -255 257 0
255 -241 -256 0
255 -367 256 0
-255 241 -256 0
-255 367 256 0
-256 364 -365 0
-256 365 366 0
256 -364 -365 0
256 365 -366 0
257 -230 -258 0
-257 230 0
-257 258 0
258 -241 -259 0
258 -367 259 0
-258 241 -259 0
-258 367 259 0
-259 365 376 0
-259 -365 366 0
259 -365 -366 0
259 365 -376 0
260 -251 -261 0
260 -250 261 0
-260 251 -261 0
-260 250 261 0
-261 382 249 0
-261 376 -249 0
261 -382 249 0
261 -376 -249 0
-262 264 266 0
-262 263 264 0
-262 263 266 0
262 -263 -264 0
262 -264 -266 0
262 -263 -266 0
-263 -230 -258 0
-263 230 258 0
263 230 -258 0
263 -230 258 0
264 -226 -265 0
264 -225 265 0
-264 226 -265 0
-264 225 265 0
-265 371 224 0
-265 375 -224 0
265 -375 -224 0
265 -371 224 0
266 383 -230 0
266 -383 -229 -231 0
266 229 -230 0
-266 383 230 0
-266 229 230 0
-266 -383 -229 231 0
-267 268 278 0
-267 -268 -278 0
267 -268 278 0
267 268 -278 0
-268 269 277 0
-268 -269 -277 0
268 -269 277 0
268 269 -277 0
-269 -270 -275 0
-269 270 275 0
269 270 -275 0
269 -270 275 0
-270 -271 -273 0
-270 271 273 0
270 271 -273 0
270 -271 273 0
271 -231 -272 0
271 -230 272 0
-271 231 -272 0
-271 230 272 0
-272 371 229 0
-272 375 -229 0
272 -375 -229 0
272 -371 229 0
273 -226 -274 0
273 -225 274 0
-273 226 -274 0
-273 225 274 0
-274 384 224 0
-274 377 -224 0
274 -384 224 0
274 -377 -224 0
275 -236 -276 0
275 -235 276 0
-275 236 -276 0
-275 235 276 0
-276 374 234 0
-276 382 -234 0
276 -382 -234 0
276 -374 234 0
-277 254 262 0
-277 254 260 0
-277 260 262 0
277 -260 -262 0
277 -254 -262 0
277 -254 -260 0
-278 279 288 0
-278 -279 -288 0
278 -279 288 0
278 279 -288 0
-279 280 281 0
-279 -280 -281 0
279 -280 281 0
279 280 -281 0
280 -255 -257 0
-280 255 0
-280 257 0
-281 -282 -286 0
-281 282 286 0
281 282 -286 0
281 -282 286 0
-282 -283 -284 0
-282 283 284 0
282 283 -284 0
282 -283 284 0
283 369 -370 -383 0
283 -369 370 -383 0
-283 383 0
-283 369 370 0
-283 -369 -370 0
284 -241 -285 0
284 -367 285 0
-284 241 -285 0
-284 367 285 0
-285 -365 380 0
-285 364 365 0
285 -365 -380 0
285 -364 365 0
286 -251 -287 0
286 -250 287 0
-286 251 -287 0
-286 250 287 0
-287 376 249 0
-287 366 -249 0
287 -376 249 0
287 -366 -249 0
-288 222 232 0
-288 227 232 0
-288 222 227 0
288 -222 -227 0
288 -227 -232 0
288 -222 -232 0
-289 290 302 0
-289 302 304 0
-289 290 304 0
289 -290 -304 0
289 -302 -304 0
289 -290 -302 0
-290 291 298 0
-290 298 300 0
-290 291 300 0
290 -291 -300 0
290 -298 -300 0
290 -291 -298 0
-291 292 296 0
-291 294 296 0
-291 292 294 0
291 -292 -294 0
291 -294 -296 0
291 -292 -296 0
292 -251 -293 0
292 -250 293 0
-292 251 -293 0
-292 250 293 0
-293 377 249 0
-293 374 -249 0
293 -377 249 0
293 -374 -249 0
294 -226 -295 0
294 -225 295 0
-294 226 -295 0
-294 225 295 0
-295 383 224 0
-295 371 -224 0
295 -383 224 0
295 -371 -224 0
296 -236 -297 0
296 -235 297 0
-296 236 -297 0
-296 235 297 0
-297 375 234 0
-297 384 -234 0
297 -384 -234 0
297 -375 234 0
-298 266 299 0
-298 -266 -299 0
298 -266 299 0
298 266 -299 0
-299 -263 -264 0
-299 263 264 0
299 263 -264 0
299 -263 264 0
-300 247 301 0
-300 -247 -301 0
300 -247 301 0
300 247 -301 0
-301 -238 -245 0
-301 238 245 0
301 238 -245 0
301 -238 245 0
-302 252 303 0
-302 -252 -303 0
302 -252 303 0
302 252 -303 0
-303 220 237 0
-303 -220 -237 0
303 -220 237 0
303 220 -237 0
-304 305 314 0
-304 314 316 0
-304 305 316 0
304 -305 -316 0
304 -314 -316 0
304 -305 -314 0
-305 306 307 0
-305 307 312 0
-305 306 312 0
305 -306 -312 0
305 -307 -312 0
305 -306 -307 0
-306 -239 -242 0
-306 239 242 0
306 239 -242 0
306 -239 242 0
-307 309 311 0
-307 308 309 0
-307 308 311 0
307 -308 -309 0
307 -309 -311 0
307 -308 -311 0
-308 -225 -243 0
-308 225 243 0
308 225 -243 0
308 -225 243 0
309 -236 -310 0
309 -235 310 0
-309 236 -310 0
-309 235 310 0
-310 371 234 0
-310 375 -234 0
310 -375 -234 0
310 -371 234 0
311 383 -225 0
311 -383 -224 -226 0
311 224 -225 0
-311 383 225 0
-311 224 225 0
-311 -383 -224 226 0
-312 296 313 0
-312 -296 -313 0
312 -296 313 0
312 296 -313 0
-313 -292 -294 0
-313 292 294 0
313 292 -294 0
313 -292 294 0
-314 300 315 0
-314 -300 -315 0
314 -300 315 0
314 300 -315 0
-315 291 298 0
-315 -291 -298 0
315 -291 298 0
315 291 -298 0
-316 317 328 0
-316 328 330 0
-316 317 330 0
316 -317 -330 0
316 -328 -330 0
316 -317 -328 0
-317 324 326 0
-317 318 324 0
-317 318 326 0
317 -318 -324 0
317 -324 -326 0
317 -318 -326 0
318 -319 -321 0
-318 319 0
-318 321 0
319 -241 -320 0
319 -367 320 0
-319 241 -320 0
-319 367 320 0
-320 365 377 0
-320 -365 374 0
320 -365 -374 0
320 365 -377 0
321 -235 -322 0
-321 235 0
-321 322 0
322 -241 -323 0
322 -367 323 0
-322 241 -323 0
-322 367 323 0
-323 365 384 0
-323 -365 377 0
323 -365 -377 0
323 365 -384 0
324 -251 -325 0
324 -250 325 0
-324 251 -325 0
-324 250 325 0
-325 384 249 0
-325 377 -249 0
325 -384 249 0
325 -377 -249 0
-326 311 327 0
-326 -311 -327 0
326 -311 327 0
326 311 -327 0
-327 -308 -309 0
-327 308 309 0
327 308 -309 0
327 -308 309 0
-328 312 329 0
-328 -312 -329 0
328 -312 329 0
328 312 -329 0
-329 306 307 0
-329 -306 -307 0
329 -306 307 0
329 306 -307 0
-330 331 337 0
-330 337 339 0
-330 331 339 0
330 -331 -339 0
330 -337 -339 0
330 -331 -337 0
-331 333 335 0
-331 332 333 0
-331 332 335 0
331 -332 -333 0
331 -333 -335 0
331 -332 -335 0
-332 -319 -321 0
-332 319 321 0
332 319 -321 0
332 -319 321 0
333 -236 -334 0
333 -235 334 0
-333 236 -334 0
-333 235 334 0
-334 383 234 0
-334 371 -234 0
334 -383 234 0
334 -371 -234 0
335 -251 -336 0
335 -250 336 0
-335 251 -336 0
-335 250 336 0
-336 375 249 0
-336 384 -249 0
336 -384 -249 0
336 -375 249 0
-337 326 338 0
-337 -326 -338 0
337 -326 338 0
337 326 -338 0
-338 -318 -324 0
-338 318 324 0
338 318 -324 0
338 -318 324 0
-339 340 345 0
-339 345 347 0
-339 340 347 0
339 -340 -347 0
339 -345 -347 0
339 -340 -345 0
-340 342 344 0
-340 341 342 0
-340 341 344 0
340 -341 -342 0
340 -342 -344 0
340 -341 -344 0
-341 -235 -322 0
-341 235 322 0
341 235 -322 0
341 -235 322 0
342 -251 -343 0
342 -250 343 0
-342 251 -343 0
-342 250 343 0
-343 371 249 0
-343 375 -249 0
343 -375 -249 0
343 -371 249 0
344 383 -235 0
344 -383 -234 -236 0
344 234 -235 0
-344 383 235 0
-344 234 235 0
-344 -383 -234 236 0
-345 335 346 0
-345 -335 -346 0
345 -335 346 0
345 335 -346 0
-346 -332 -333 0
-346 332 333 0
346 332 -333 0
346 -332 333 0
-347 348 354 0
-347 354 356 0
-347 348 356 0
347 -354 -356 0
347 -348 -354 0
347 -348 -356 0
348 -349 -351 0
-348 349 0
-348 351 0
349 -241 -350 0
349 -367 350 0
-349 241 -350 0
-349 367 350 0
-350 -365 384 0
-350 365 375 0
350 365 -375 0
350 -365 -384 0
351 -250 -352 0
-351 250 0
-351 352 0
352 -241 -353 0
352 -367 353 0
-352 241 -353 0
-352 367 353 0
-353 -365 375 0
-353 365 371 0
353 365 -371 0
353 -365 -375 0
-354 344 355 0
-354 -344 -355 0
354 -344 355 0
354 344 -355 0
-355 -341 -342 0
-355 341 342 0
355 341 -342 0
355 -341 342 0
-356 357 360 0
-356 357 358 0
-356 358 360 0
356 -358 -360 0
356 -357 -360 0
356 -357 -358 0
-357 -349 -351 0
-357 349 351 0
357 349 -351 0
357 -349 351 0
358 -251 -359 0
358 -250 359 0
-358 251 -359 0
-358 250 359 0
-359 383 249 0
-359 371 -249 0
359 -383 249 0
359 -371 -249 0
-360 362 363 0
-360 361 362 0
-360 361 363 0
360 -361 -362 0
360 -362 -363 0
360 -361 -363 0
-361 -250 -352 0
-361 250 352 0
361 250 -352 0
361 -250 352 0
362 383 -250 0
362 -383 -249 -251 0
362 249 -250 0
-362 383 250 0
-362 249 250 0
-362 -383 -249 251 0
363 365 -367 383 0
363 -367 371 383 0
-363 367 0
-363 -383 0
-363 -365 -371 0
-386 0
2 0

